[2026-03-23T16:02:19.904Z] Pipeline "set_exp_3_exp_3_n025_c002_g002" → 2026_03_23_16_02_19_set_exp_3_exp_3_n025_c002_g002_max.sol
Set parameter WLSAccessID
Set parameter WLSSecret
Set parameter LicenseID to value 2792458
Set parameter LogFile to value "gurobi.log"
Using license file /root/gurobi.lic
Academic license 2792458 - for non-commercial use only - registered to an___@studenti.unipg.it

Gurobi Optimizer version 13.0.1 build v13.0.1rc0 (linux64 - "Ubuntu 24.04.4 LTS")
Copyright (c) 2026, Gurobi Optimization, LLC

Warning: Duplicate section found (read 'binary') - Is a variable name equal to an LP file format keyword?
Warning: Duplicate section found (read 'binary') - Is a variable name equal to an LP file format keyword?
Warning: Duplicate section found (read 'binary') - Is a variable name equal to an LP file format keyword?
Warning: Duplicate section found (read 'binary') - Is a variable name equal to an LP file format keyword?
Warning: Duplicate section found (read 'binary') - Is a variable name equal to an LP file format keyword?
Warning: Duplicate section found (read 'binary') - Is a variable name equal to an LP file format keyword?
Warning: Duplicate section found (read 'binary') - Is a variable name equal to an LP file format keyword?
Warning: Duplicate section found (read 'binary') - Is a variable name equal to an LP file format keyword?
Warning: Duplicate section found (read 'binary') - Is a variable name equal to an LP file format keyword?
Warning: Duplicate section found (read 'binary') - Is a variable name equal to an LP file format keyword?
Warning: Further warnings of this type will be omitted.
Read LP format model from file /root/bgw/data/uploads/2026_03_23_16_02_19_set_exp_3_exp_3_n025_c002_g002_max.lp
Reading time = 0.01 seconds
: 5275 rows, 457 columns, 15740 nonzeros

Using Gurobi shared library /opt/gurobi1301/linux64/lib/libgurobi.so.13.0.1

CPU model: AMD EPYC-Genoa Processor, instruction set [SSE2|AVX|AVX2|AVX512]
Thread count: 16 physical cores, 16 logical processors, using up to 16 threads

Academic license 2792458 - for non-commercial use only - registered to an___@studenti.unipg.it
Optimize a model with 5275 rows, 457 columns and 15740 nonzeros (Max)
Model fingerprint: 0x9261b2e9
Model has 6 linear objective coefficients
Variable types: 31 continuous, 426 integer (426 binary)
Coefficient statistics:
  Matrix range     [1e+00, 3e+01]
  Objective range  [1e+00, 1e+00]
  Bounds range     [1e+00, 1e+00]
  RHS range        [1e+00, 3e+01]

Found heuristic solution: objective 6.0000000
Presolve removed 650 rows and 141 columns
Presolve time: 0.03s
Presolved: 4625 rows, 316 columns, 14029 nonzeros
Variable types: 0 continuous, 316 integer (309 binary)
Found heuristic solution: objective 10.0000000

Root relaxation: objective 2.700000e+01, 128 iterations, 0.01 seconds (0.01 work units)

    Nodes    |    Current Node    |     Objective Bounds      |     Work
 Expl Unexpl |  Obj  Depth IntInf | Incumbent    BestBd   Gap | It/Node Time

     0     0   27.00000    0   10   10.00000   27.00000   170%     -    0s
H    0     0                      17.0000000   27.00000  58.8%     -    0s
     0     0   27.00000    0   11   17.00000   27.00000  58.8%     -    0s
     0     0   27.00000    0   16   17.00000   27.00000  58.8%     -    0s
     0     0   27.00000    0   16   17.00000   27.00000  58.8%     -    0s
     0     0   27.00000    0   10   17.00000   27.00000  58.8%     -    0s
     0     0   24.00000    0    8   17.00000   24.00000  41.2%     -    0s
     0     0   24.00000    0   18   17.00000   24.00000  41.2%     -    0s
     0     0   24.00000    0   18   17.00000   24.00000  41.2%     -    0s
     0     0   24.00000    0   17   17.00000   24.00000  41.2%     -    0s
     0     0   24.00000    0   17   17.00000   24.00000  41.2%     -    0s
     0     0   24.00000    0   14   17.00000   24.00000  41.2%     -    0s
     0     0   24.00000    0   10   17.00000   24.00000  41.2%     -    0s
     0     0   24.00000    0   12   17.00000   24.00000  41.2%     -    0s
     0     0   24.00000    0   11   17.00000   24.00000  41.2%     -    0s
     0     0   24.00000    0   10   17.00000   24.00000  41.2%     -    0s
     0     0   24.00000    0    9   17.00000   24.00000  41.2%     -    0s
     0     0   23.73913    0    8   17.00000   23.73913  39.6%     -    0s
     0     0   23.73913    0    8   17.00000   23.73913  39.6%     -    0s
     0     2   23.73913    0    8   17.00000   23.73913  39.6%     -    0s

Cutting planes:
  Gomory: 4
  Cover: 3
  MIR: 4
  Inf proof: 7
  Zero half: 5
  Mod-K: 6

Explored 183 nodes (11932 simplex iterations) in 0.58 seconds (0.43 work units)
Thread count was 16 (of 16 available processors)

Solution count 3: 17 10 6 

Optimal solution found (tolerance 1.00e-04)
Best objective 1.700000000000e+01, best bound 1.700000000000e+01, gap 0.0000%

Wrote result file '/root/bgw/data/results/2026_03_23_16_02_19_set_exp_3_exp_3_n025_c002_g002_max.sol'

